jobs  (incl. supersource/sink ):	52
RESOURCES
- renewable                 : 4 R
- nonrenewable              : 2 N
- doubly constrained        : 0 D
************************************************************************
PRECEDENCE RELATIONS:
jobnr.    #modes  #successors   successors
1	1	8		2 3 4 5 6 7 8 11 
2	3	6		20 17 16 15 14 13 
3	3	6		20 17 16 14 13 12 
4	3	4		15 14 13 10 
5	3	4		27 20 17 9 
6	3	5		27 24 21 20 15 
7	3	3		20 16 14 
8	3	6		27 24 22 21 20 17 
9	3	2		18 13 
10	3	6		27 24 23 21 20 19 
11	3	6		27 24 23 22 20 19 
12	3	3		24 19 18 
13	3	5		34 24 22 21 19 
14	3	4		27 23 22 19 
15	3	2		19 18 
16	3	7		34 28 27 25 24 22 21 
17	3	2		23 19 
18	3	5		36 26 25 23 22 
19	3	5		30 29 28 26 25 
20	3	4		30 29 28 26 
21	3	5		36 32 31 30 29 
22	3	4		32 31 30 29 
23	3	4		34 32 30 29 
24	3	3		31 30 29 
25	3	3		33 32 31 
26	3	3		33 32 31 
27	3	1		29 
28	3	3		37 36 35 
29	3	2		37 33 
30	3	2		37 33 
31	3	2		37 35 
32	3	2		38 35 
33	3	2		39 35 
34	3	1		35 
35	3	5		45 43 42 41 40 
36	3	2		45 38 
37	3	1		38 
38	3	3		49 43 39 
39	3	5		51 50 48 47 44 
40	3	4		51 49 48 47 
41	3	3		49 48 46 
42	3	2		50 47 
43	3	1		44 
44	3	1		46 
45	3	1		46 
46	3	1		52 
47	3	1		52 
48	3	1		52 
49	3	1		52 
50	3	1		52 
51	3	1		52 
52	1	0		
************************************************************************
REQUESTS/DURATIONS
jobnr.	mode	dur	R1	R2	R3	R4	N1	N2	
------------------------------------------------------------------------
1	1	0	0	0	0	0	0	0	
2	1	9	4	5	4	2	18	15	
	2	13	4	4	3	2	7	11	
	3	17	4	3	2	2	6	9	
3	1	7	4	3	1	5	29	18	
	2	10	3	3	1	3	21	17	
	3	21	2	3	1	3	17	10	
4	1	2	5	1	5	2	19	16	
	2	16	5	1	2	2	18	14	
	3	25	5	1	2	2	18	12	
5	1	2	4	4	3	4	18	21	
	2	21	3	4	2	2	16	18	
	3	22	3	3	1	2	15	14	
6	1	3	2	5	3	3	22	20	
	2	7	1	3	2	3	16	16	
	3	15	1	3	2	2	7	12	
7	1	2	4	1	4	1	8	26	
	2	15	4	1	3	1	8	23	
	3	18	4	1	3	1	8	19	
8	1	2	3	2	1	4	9	16	
	2	10	3	2	1	3	7	7	
	3	26	3	2	1	3	5	4	
9	1	10	3	2	5	1	5	28	
	2	15	2	2	4	1	5	25	
	3	27	2	1	2	1	4	25	
10	1	12	4	1	5	4	17	30	
	2	25	3	1	3	3	13	25	
	3	30	2	1	3	2	11	24	
11	1	12	2	3	5	2	17	16	
	2	19	1	2	5	1	15	16	
	3	24	1	2	5	1	12	4	
12	1	2	3	2	4	5	15	11	
	2	26	2	2	4	4	11	10	
	3	27	1	2	4	3	9	10	
13	1	3	3	3	5	4	10	10	
	2	20	3	2	4	3	7	4	
	3	26	3	2	2	2	3	4	
14	1	5	4	4	3	2	29	11	
	2	6	3	2	2	1	28	8	
	3	10	3	1	1	1	27	1	
15	1	18	4	5	5	3	16	25	
	2	20	4	4	3	3	13	23	
	3	23	4	3	2	1	8	21	
16	1	6	3	3	2	3	28	2	
	2	19	3	3	2	3	23	2	
	3	21	1	3	2	3	14	2	
17	1	16	4	2	3	4	5	13	
	2	17	2	1	3	4	3	11	
	3	18	2	1	3	4	3	10	
18	1	4	3	3	1	2	29	21	
	2	8	2	2	1	2	29	19	
	3	20	2	2	1	2	29	17	
19	1	1	4	4	2	1	20	18	
	2	9	3	2	2	1	15	18	
	3	22	3	1	2	1	14	15	
20	1	15	5	5	4	1	23	19	
	2	19	5	5	2	1	23	17	
	3	29	5	5	2	1	23	10	
21	1	2	3	5	5	5	10	20	
	2	15	3	4	3	3	7	10	
	3	23	3	2	3	2	3	4	
22	1	9	3	1	2	1	23	13	
	2	20	2	1	1	1	20	11	
	3	21	1	1	1	1	16	9	
23	1	1	2	2	3	3	25	3	
	2	16	2	2	1	2	24	2	
	3	25	2	1	1	2	21	2	
24	1	14	3	2	4	5	14	23	
	2	16	3	1	4	4	10	13	
	3	30	3	1	3	4	10	11	
25	1	9	3	4	3	4	14	23	
	2	23	3	4	3	3	10	16	
	3	26	3	4	3	2	9	9	
26	1	4	5	5	4	4	26	5	
	2	13	3	3	4	3	19	5	
	3	20	3	3	4	1	12	5	
27	1	7	5	3	1	1	27	12	
	2	8	3	1	1	1	26	8	
	3	12	3	1	1	1	24	6	
28	1	2	5	2	3	5	27	27	
	2	14	2	2	2	3	26	22	
	3	15	1	2	2	3	26	18	
29	1	5	3	4	2	4	22	26	
	2	17	3	3	2	3	14	22	
	3	24	3	2	1	3	2	16	
30	1	8	3	3	5	4	13	18	
	2	14	3	3	4	4	13	15	
	3	22	3	3	2	3	13	15	
31	1	3	5	4	5	5	7	12	
	2	24	5	4	4	4	7	11	
	3	28	5	4	2	3	3	10	
32	1	9	1	5	3	3	25	17	
	2	10	1	3	2	2	23	14	
	3	21	1	2	1	2	15	8	
33	1	2	4	3	5	2	25	21	
	2	24	3	3	4	2	19	16	
	3	30	3	3	4	1	12	14	
34	1	10	2	3	3	3	22	15	
	2	13	2	2	3	2	15	12	
	3	15	2	1	3	2	6	9	
35	1	5	3	5	3	3	5	24	
	2	9	3	4	3	3	4	24	
	3	18	3	4	3	3	1	24	
36	1	18	4	3	2	5	4	24	
	2	20	4	2	1	4	3	20	
	3	22	3	2	1	3	3	14	
37	1	9	4	2	4	4	16	26	
	2	19	4	1	4	2	11	14	
	3	20	3	1	4	1	9	7	
38	1	11	4	3	5	4	14	19	
	2	20	4	1	4	2	11	9	
	3	29	4	1	4	2	11	4	
39	1	20	3	3	2	5	13	23	
	2	25	2	1	2	3	11	22	
	3	30	1	1	2	3	7	22	
40	1	11	5	1	3	4	7	30	
	2	14	3	1	1	4	6	22	
	3	25	3	1	1	2	5	19	
41	1	4	3	4	4	3	12	9	
	2	5	1	3	2	2	11	7	
	3	15	1	3	2	2	9	7	
42	1	10	4	1	1	3	29	21	
	2	13	4	1	1	2	22	15	
	3	25	4	1	1	1	12	12	
43	1	9	3	1	5	1	24	13	
	2	11	1	1	3	1	21	11	
	3	28	1	1	2	1	12	10	
44	1	5	3	4	5	4	19	21	
	2	15	3	4	4	3	19	20	
	3	17	3	2	3	3	19	17	
45	1	1	4	4	5	5	17	9	
	2	13	4	3	5	2	16	9	
	3	22	3	3	5	2	14	5	
46	1	8	2	4	3	4	9	18	
	2	9	2	3	3	4	6	14	
	3	17	1	2	3	4	4	14	
47	1	3	5	3	2	3	17	22	
	2	15	4	2	2	2	14	20	
	3	29	4	2	2	2	8	18	
48	1	1	4	5	3	4	26	14	
	2	5	4	5	3	2	24	12	
	3	30	3	5	3	1	23	10	
49	1	1	2	1	3	4	24	20	
	2	7	1	1	2	3	19	13	
	3	17	1	1	1	2	16	12	
50	1	8	4	4	3	3	17	29	
	2	12	3	4	3	2	16	19	
	3	13	3	3	1	2	15	15	
51	1	8	3	2	3	1	18	21	
	2	22	2	1	3	1	12	19	
	3	24	2	1	3	1	6	15	
52	1	0	0	0	0	0	0	0	
************************************************************************

 RESOURCE AVAILABILITIES 
	R 1	R 2	R 3	R 4	N 1	N 2
	152	149	162	146	810	831

************************************************************************
